* #variable= 12 #constraint= 7
* example of a PBS file for pigeonhole problem.
1 x1 +1 x2 +1 x3 = 1 ;
1 x4 +1 x5 +1 x6 = 1 ;
1 x7 +1 x8 +1 x9 = 1 ;
1 x10 +1 x11 +1 x12 = 1 ;
1 ~x1 +1 ~x4 +1 ~x7 +1 ~x10 >= 3 ;
1 ~x2 +1 ~x5 +1 ~x8 +1 ~x11 >= 3 ;
1 ~x3 +1 ~x6 +1 ~x9 +1 ~x12 >= 3 ;
